(set-logic QF_LRA)
(declare-fun X0 () Real )
(declare-fun Y0 () Real )
(declare-fun X1 () Real )
(declare-fun Y1 () Real )
(declare-fun X2 () Real )
(declare-fun Y2 () Real )
(declare-fun X3 () Real )
(declare-fun Y3 () Real )
(declare-fun X4 () Real )
(declare-fun Y4 () Real )
(declare-fun X5 () Real )
(declare-fun Y5 () Real )
(declare-fun X6 () Real )
(declare-fun Y6 () Real )
(declare-fun X7 () Real )
(declare-fun Y7 () Real )
(declare-fun X8 () Real )
(declare-fun Y8 () Real )
(declare-fun X9 () Real )
(declare-fun Y9 () Real )
(declare-fun X10 () Real )
(declare-fun Y10 () Real )
(declare-fun X11 () Real )
(declare-fun Y11 () Real )
(declare-fun X12 () Real )
(declare-fun Y12 () Real )
(declare-fun X13 () Real )
(declare-fun Y13 () Real )
(declare-fun X14 () Real )
(declare-fun Y14 () Real )
(declare-fun X15 () Real )
(declare-fun Y15 () Real )
(declare-fun X16 () Real )
(declare-fun Y16 () Real )
(declare-fun X17 () Real )
(declare-fun Y17 () Real )
(declare-fun Z () Real )
(assert ( and  
( or ( <= ( + X0 89 ) X1 )  ( <= ( + X1 28 ) X0 )  ( <= ( + Y0 16 ) Y1 )  ( <= ( + Y1 68 ) Y0 )  )
( or ( <= ( + X0 89 ) X2 )  ( <= ( + X2 86 ) X0 )  ( <= ( + Y0 16 ) Y2 )  ( <= ( + Y2 87 ) Y0 )  )
( or ( <= ( + X0 89 ) X3 )  ( <= ( + X3 39 ) X0 )  ( <= ( + Y0 16 ) Y3 )  ( <= ( + Y3 91 ) Y0 )  )
( or ( <= ( + X0 89 ) X4 )  ( <= ( + X4 95 ) X0 )  ( <= ( + Y0 16 ) Y4 )  ( <= ( + Y4 77 ) Y0 )  )
( or ( <= ( + X0 89 ) X5 )  ( <= ( + X5 88 ) X0 )  ( <= ( + Y0 16 ) Y5 )  ( <= ( + Y5 55 ) Y0 )  )
( or ( <= ( + X0 89 ) X6 )  ( <= ( + X6 18 ) X0 )  ( <= ( + Y0 16 ) Y6 )  ( <= ( + Y6 13 ) Y0 )  )
( or ( <= ( + X0 89 ) X7 )  ( <= ( + X7 36 ) X0 )  ( <= ( + Y0 16 ) Y7 )  ( <= ( + Y7 73 ) Y0 )  )
( or ( <= ( + X0 89 ) X8 )  ( <= ( + X8 80 ) X0 )  ( <= ( + Y0 16 ) Y8 )  ( <= ( + Y8 9 ) Y0 )  )
( or ( <= ( + X0 89 ) X9 )  ( <= ( + X9 15 ) X0 )  ( <= ( + Y0 16 ) Y9 )  ( <= ( + Y9 18 ) Y0 )  )
( or ( <= ( + X0 89 ) X10 )  ( <= ( + X10 10 ) X0 )  ( <= ( + Y0 16 ) Y10 )  ( <= ( + Y10 72 ) Y0 )  )
( or ( <= ( + X0 89 ) X11 )  ( <= ( + X11 93 ) X0 )  ( <= ( + Y0 16 ) Y11 )  ( <= ( + Y11 78 ) Y0 )  )
( or ( <= ( + X0 89 ) X12 )  ( <= ( + X12 37 ) X0 )  ( <= ( + Y0 16 ) Y12 )  ( <= ( + Y12 45 ) Y0 )  )
( or ( <= ( + X0 89 ) X13 )  ( <= ( + X13 13 ) X0 )  ( <= ( + Y0 16 ) Y13 )  ( <= ( + Y13 13 ) Y0 )  )
( or ( <= ( + X0 89 ) X14 )  ( <= ( + X14 87 ) X0 )  ( <= ( + Y0 16 ) Y14 )  ( <= ( + Y14 58 ) Y0 )  )
( or ( <= ( + X0 89 ) X15 )  ( <= ( + X15 42 ) X0 )  ( <= ( + Y0 16 ) Y15 )  ( <= ( + Y15 30 ) Y0 )  )
( or ( <= ( + X0 89 ) X16 )  ( <= ( + X16 67 ) X0 )  ( <= ( + Y0 16 ) Y16 )  ( <= ( + Y16 51 ) Y0 )  )
( or ( <= ( + X0 89 ) X17 )  ( <= ( + X17 54 ) X0 )  ( <= ( + Y0 16 ) Y17 )  ( <= ( + Y17 52 ) Y0 )  )
( or ( <= ( + X1 28 ) X2 )  ( <= ( + X2 86 ) X1 )  ( <= ( + Y1 68 ) Y2 )  ( <= ( + Y2 87 ) Y1 )  )
( or ( <= ( + X1 28 ) X3 )  ( <= ( + X3 39 ) X1 )  ( <= ( + Y1 68 ) Y3 )  ( <= ( + Y3 91 ) Y1 )  )
( or ( <= ( + X1 28 ) X4 )  ( <= ( + X4 95 ) X1 )  ( <= ( + Y1 68 ) Y4 )  ( <= ( + Y4 77 ) Y1 )  )
( or ( <= ( + X1 28 ) X5 )  ( <= ( + X5 88 ) X1 )  ( <= ( + Y1 68 ) Y5 )  ( <= ( + Y5 55 ) Y1 )  )
( or ( <= ( + X1 28 ) X6 )  ( <= ( + X6 18 ) X1 )  ( <= ( + Y1 68 ) Y6 )  ( <= ( + Y6 13 ) Y1 )  )
( or ( <= ( + X1 28 ) X7 )  ( <= ( + X7 36 ) X1 )  ( <= ( + Y1 68 ) Y7 )  ( <= ( + Y7 73 ) Y1 )  )
( or ( <= ( + X1 28 ) X8 )  ( <= ( + X8 80 ) X1 )  ( <= ( + Y1 68 ) Y8 )  ( <= ( + Y8 9 ) Y1 )  )
( or ( <= ( + X1 28 ) X9 )  ( <= ( + X9 15 ) X1 )  ( <= ( + Y1 68 ) Y9 )  ( <= ( + Y9 18 ) Y1 )  )
( or ( <= ( + X1 28 ) X10 )  ( <= ( + X10 10 ) X1 )  ( <= ( + Y1 68 ) Y10 )  ( <= ( + Y10 72 ) Y1 )  )
( or ( <= ( + X1 28 ) X11 )  ( <= ( + X11 93 ) X1 )  ( <= ( + Y1 68 ) Y11 )  ( <= ( + Y11 78 ) Y1 )  )
( or ( <= ( + X1 28 ) X12 )  ( <= ( + X12 37 ) X1 )  ( <= ( + Y1 68 ) Y12 )  ( <= ( + Y12 45 ) Y1 )  )
( or ( <= ( + X1 28 ) X13 )  ( <= ( + X13 13 ) X1 )  ( <= ( + Y1 68 ) Y13 )  ( <= ( + Y13 13 ) Y1 )  )
( or ( <= ( + X1 28 ) X14 )  ( <= ( + X14 87 ) X1 )  ( <= ( + Y1 68 ) Y14 )  ( <= ( + Y14 58 ) Y1 )  )
( or ( <= ( + X1 28 ) X15 )  ( <= ( + X15 42 ) X1 )  ( <= ( + Y1 68 ) Y15 )  ( <= ( + Y15 30 ) Y1 )  )
( or ( <= ( + X1 28 ) X16 )  ( <= ( + X16 67 ) X1 )  ( <= ( + Y1 68 ) Y16 )  ( <= ( + Y16 51 ) Y1 )  )
( or ( <= ( + X1 28 ) X17 )  ( <= ( + X17 54 ) X1 )  ( <= ( + Y1 68 ) Y17 )  ( <= ( + Y17 52 ) Y1 )  )
( or ( <= ( + X2 86 ) X3 )  ( <= ( + X3 39 ) X2 )  ( <= ( + Y2 87 ) Y3 )  ( <= ( + Y3 91 ) Y2 )  )
( or ( <= ( + X2 86 ) X4 )  ( <= ( + X4 95 ) X2 )  ( <= ( + Y2 87 ) Y4 )  ( <= ( + Y4 77 ) Y2 )  )
( or ( <= ( + X2 86 ) X5 )  ( <= ( + X5 88 ) X2 )  ( <= ( + Y2 87 ) Y5 )  ( <= ( + Y5 55 ) Y2 )  )
( or ( <= ( + X2 86 ) X6 )  ( <= ( + X6 18 ) X2 )  ( <= ( + Y2 87 ) Y6 )  ( <= ( + Y6 13 ) Y2 )  )
( or ( <= ( + X2 86 ) X7 )  ( <= ( + X7 36 ) X2 )  ( <= ( + Y2 87 ) Y7 )  ( <= ( + Y7 73 ) Y2 )  )
( or ( <= ( + X2 86 ) X8 )  ( <= ( + X8 80 ) X2 )  ( <= ( + Y2 87 ) Y8 )  ( <= ( + Y8 9 ) Y2 )  )
( or ( <= ( + X2 86 ) X9 )  ( <= ( + X9 15 ) X2 )  ( <= ( + Y2 87 ) Y9 )  ( <= ( + Y9 18 ) Y2 )  )
( or ( <= ( + X2 86 ) X10 )  ( <= ( + X10 10 ) X2 )  ( <= ( + Y2 87 ) Y10 )  ( <= ( + Y10 72 ) Y2 )  )
( or ( <= ( + X2 86 ) X11 )  ( <= ( + X11 93 ) X2 )  ( <= ( + Y2 87 ) Y11 )  ( <= ( + Y11 78 ) Y2 )  )
( or ( <= ( + X2 86 ) X12 )  ( <= ( + X12 37 ) X2 )  ( <= ( + Y2 87 ) Y12 )  ( <= ( + Y12 45 ) Y2 )  )
( or ( <= ( + X2 86 ) X13 )  ( <= ( + X13 13 ) X2 )  ( <= ( + Y2 87 ) Y13 )  ( <= ( + Y13 13 ) Y2 )  )
( or ( <= ( + X2 86 ) X14 )  ( <= ( + X14 87 ) X2 )  ( <= ( + Y2 87 ) Y14 )  ( <= ( + Y14 58 ) Y2 )  )
( or ( <= ( + X2 86 ) X15 )  ( <= ( + X15 42 ) X2 )  ( <= ( + Y2 87 ) Y15 )  ( <= ( + Y15 30 ) Y2 )  )
( or ( <= ( + X2 86 ) X16 )  ( <= ( + X16 67 ) X2 )  ( <= ( + Y2 87 ) Y16 )  ( <= ( + Y16 51 ) Y2 )  )
( or ( <= ( + X2 86 ) X17 )  ( <= ( + X17 54 ) X2 )  ( <= ( + Y2 87 ) Y17 )  ( <= ( + Y17 52 ) Y2 )  )
( or ( <= ( + X3 39 ) X4 )  ( <= ( + X4 95 ) X3 )  ( <= ( + Y3 91 ) Y4 )  ( <= ( + Y4 77 ) Y3 )  )
( or ( <= ( + X3 39 ) X5 )  ( <= ( + X5 88 ) X3 )  ( <= ( + Y3 91 ) Y5 )  ( <= ( + Y5 55 ) Y3 )  )
( or ( <= ( + X3 39 ) X6 )  ( <= ( + X6 18 ) X3 )  ( <= ( + Y3 91 ) Y6 )  ( <= ( + Y6 13 ) Y3 )  )
( or ( <= ( + X3 39 ) X7 )  ( <= ( + X7 36 ) X3 )  ( <= ( + Y3 91 ) Y7 )  ( <= ( + Y7 73 ) Y3 )  )
( or ( <= ( + X3 39 ) X8 )  ( <= ( + X8 80 ) X3 )  ( <= ( + Y3 91 ) Y8 )  ( <= ( + Y8 9 ) Y3 )  )
( or ( <= ( + X3 39 ) X9 )  ( <= ( + X9 15 ) X3 )  ( <= ( + Y3 91 ) Y9 )  ( <= ( + Y9 18 ) Y3 )  )
( or ( <= ( + X3 39 ) X10 )  ( <= ( + X10 10 ) X3 )  ( <= ( + Y3 91 ) Y10 )  ( <= ( + Y10 72 ) Y3 )  )
( or ( <= ( + X3 39 ) X11 )  ( <= ( + X11 93 ) X3 )  ( <= ( + Y3 91 ) Y11 )  ( <= ( + Y11 78 ) Y3 )  )
( or ( <= ( + X3 39 ) X12 )  ( <= ( + X12 37 ) X3 )  ( <= ( + Y3 91 ) Y12 )  ( <= ( + Y12 45 ) Y3 )  )
( or ( <= ( + X3 39 ) X13 )  ( <= ( + X13 13 ) X3 )  ( <= ( + Y3 91 ) Y13 )  ( <= ( + Y13 13 ) Y3 )  )
( or ( <= ( + X3 39 ) X14 )  ( <= ( + X14 87 ) X3 )  ( <= ( + Y3 91 ) Y14 )  ( <= ( + Y14 58 ) Y3 )  )
( or ( <= ( + X3 39 ) X15 )  ( <= ( + X15 42 ) X3 )  ( <= ( + Y3 91 ) Y15 )  ( <= ( + Y15 30 ) Y3 )  )
( or ( <= ( + X3 39 ) X16 )  ( <= ( + X16 67 ) X3 )  ( <= ( + Y3 91 ) Y16 )  ( <= ( + Y16 51 ) Y3 )  )
( or ( <= ( + X3 39 ) X17 )  ( <= ( + X17 54 ) X3 )  ( <= ( + Y3 91 ) Y17 )  ( <= ( + Y17 52 ) Y3 )  )
( or ( <= ( + X4 95 ) X5 )  ( <= ( + X5 88 ) X4 )  ( <= ( + Y4 77 ) Y5 )  ( <= ( + Y5 55 ) Y4 )  )
( or ( <= ( + X4 95 ) X6 )  ( <= ( + X6 18 ) X4 )  ( <= ( + Y4 77 ) Y6 )  ( <= ( + Y6 13 ) Y4 )  )
( or ( <= ( + X4 95 ) X7 )  ( <= ( + X7 36 ) X4 )  ( <= ( + Y4 77 ) Y7 )  ( <= ( + Y7 73 ) Y4 )  )
( or ( <= ( + X4 95 ) X8 )  ( <= ( + X8 80 ) X4 )  ( <= ( + Y4 77 ) Y8 )  ( <= ( + Y8 9 ) Y4 )  )
( or ( <= ( + X4 95 ) X9 )  ( <= ( + X9 15 ) X4 )  ( <= ( + Y4 77 ) Y9 )  ( <= ( + Y9 18 ) Y4 )  )
( or ( <= ( + X4 95 ) X10 )  ( <= ( + X10 10 ) X4 )  ( <= ( + Y4 77 ) Y10 )  ( <= ( + Y10 72 ) Y4 )  )
( or ( <= ( + X4 95 ) X11 )  ( <= ( + X11 93 ) X4 )  ( <= ( + Y4 77 ) Y11 )  ( <= ( + Y11 78 ) Y4 )  )
( or ( <= ( + X4 95 ) X12 )  ( <= ( + X12 37 ) X4 )  ( <= ( + Y4 77 ) Y12 )  ( <= ( + Y12 45 ) Y4 )  )
( or ( <= ( + X4 95 ) X13 )  ( <= ( + X13 13 ) X4 )  ( <= ( + Y4 77 ) Y13 )  ( <= ( + Y13 13 ) Y4 )  )
( or ( <= ( + X4 95 ) X14 )  ( <= ( + X14 87 ) X4 )  ( <= ( + Y4 77 ) Y14 )  ( <= ( + Y14 58 ) Y4 )  )
( or ( <= ( + X4 95 ) X15 )  ( <= ( + X15 42 ) X4 )  ( <= ( + Y4 77 ) Y15 )  ( <= ( + Y15 30 ) Y4 )  )
( or ( <= ( + X4 95 ) X16 )  ( <= ( + X16 67 ) X4 )  ( <= ( + Y4 77 ) Y16 )  ( <= ( + Y16 51 ) Y4 )  )
( or ( <= ( + X4 95 ) X17 )  ( <= ( + X17 54 ) X4 )  ( <= ( + Y4 77 ) Y17 )  ( <= ( + Y17 52 ) Y4 )  )
( or ( <= ( + X5 88 ) X6 )  ( <= ( + X6 18 ) X5 )  ( <= ( + Y5 55 ) Y6 )  ( <= ( + Y6 13 ) Y5 )  )
( or ( <= ( + X5 88 ) X7 )  ( <= ( + X7 36 ) X5 )  ( <= ( + Y5 55 ) Y7 )  ( <= ( + Y7 73 ) Y5 )  )
( or ( <= ( + X5 88 ) X8 )  ( <= ( + X8 80 ) X5 )  ( <= ( + Y5 55 ) Y8 )  ( <= ( + Y8 9 ) Y5 )  )
( or ( <= ( + X5 88 ) X9 )  ( <= ( + X9 15 ) X5 )  ( <= ( + Y5 55 ) Y9 )  ( <= ( + Y9 18 ) Y5 )  )
( or ( <= ( + X5 88 ) X10 )  ( <= ( + X10 10 ) X5 )  ( <= ( + Y5 55 ) Y10 )  ( <= ( + Y10 72 ) Y5 )  )
( or ( <= ( + X5 88 ) X11 )  ( <= ( + X11 93 ) X5 )  ( <= ( + Y5 55 ) Y11 )  ( <= ( + Y11 78 ) Y5 )  )
( or ( <= ( + X5 88 ) X12 )  ( <= ( + X12 37 ) X5 )  ( <= ( + Y5 55 ) Y12 )  ( <= ( + Y12 45 ) Y5 )  )
( or ( <= ( + X5 88 ) X13 )  ( <= ( + X13 13 ) X5 )  ( <= ( + Y5 55 ) Y13 )  ( <= ( + Y13 13 ) Y5 )  )
( or ( <= ( + X5 88 ) X14 )  ( <= ( + X14 87 ) X5 )  ( <= ( + Y5 55 ) Y14 )  ( <= ( + Y14 58 ) Y5 )  )
( or ( <= ( + X5 88 ) X15 )  ( <= ( + X15 42 ) X5 )  ( <= ( + Y5 55 ) Y15 )  ( <= ( + Y15 30 ) Y5 )  )
( or ( <= ( + X5 88 ) X16 )  ( <= ( + X16 67 ) X5 )  ( <= ( + Y5 55 ) Y16 )  ( <= ( + Y16 51 ) Y5 )  )
( or ( <= ( + X5 88 ) X17 )  ( <= ( + X17 54 ) X5 )  ( <= ( + Y5 55 ) Y17 )  ( <= ( + Y17 52 ) Y5 )  )
( or ( <= ( + X6 18 ) X7 )  ( <= ( + X7 36 ) X6 )  ( <= ( + Y6 13 ) Y7 )  ( <= ( + Y7 73 ) Y6 )  )
( or ( <= ( + X6 18 ) X8 )  ( <= ( + X8 80 ) X6 )  ( <= ( + Y6 13 ) Y8 )  ( <= ( + Y8 9 ) Y6 )  )
( or ( <= ( + X6 18 ) X9 )  ( <= ( + X9 15 ) X6 )  ( <= ( + Y6 13 ) Y9 )  ( <= ( + Y9 18 ) Y6 )  )
( or ( <= ( + X6 18 ) X10 )  ( <= ( + X10 10 ) X6 )  ( <= ( + Y6 13 ) Y10 )  ( <= ( + Y10 72 ) Y6 )  )
( or ( <= ( + X6 18 ) X11 )  ( <= ( + X11 93 ) X6 )  ( <= ( + Y6 13 ) Y11 )  ( <= ( + Y11 78 ) Y6 )  )
( or ( <= ( + X6 18 ) X12 )  ( <= ( + X12 37 ) X6 )  ( <= ( + Y6 13 ) Y12 )  ( <= ( + Y12 45 ) Y6 )  )
( or ( <= ( + X6 18 ) X13 )  ( <= ( + X13 13 ) X6 )  ( <= ( + Y6 13 ) Y13 )  ( <= ( + Y13 13 ) Y6 )  )
( or ( <= ( + X6 18 ) X14 )  ( <= ( + X14 87 ) X6 )  ( <= ( + Y6 13 ) Y14 )  ( <= ( + Y14 58 ) Y6 )  )
( or ( <= ( + X6 18 ) X15 )  ( <= ( + X15 42 ) X6 )  ( <= ( + Y6 13 ) Y15 )  ( <= ( + Y15 30 ) Y6 )  )
( or ( <= ( + X6 18 ) X16 )  ( <= ( + X16 67 ) X6 )  ( <= ( + Y6 13 ) Y16 )  ( <= ( + Y16 51 ) Y6 )  )
( or ( <= ( + X6 18 ) X17 )  ( <= ( + X17 54 ) X6 )  ( <= ( + Y6 13 ) Y17 )  ( <= ( + Y17 52 ) Y6 )  )
( or ( <= ( + X7 36 ) X8 )  ( <= ( + X8 80 ) X7 )  ( <= ( + Y7 73 ) Y8 )  ( <= ( + Y8 9 ) Y7 )  )
( or ( <= ( + X7 36 ) X9 )  ( <= ( + X9 15 ) X7 )  ( <= ( + Y7 73 ) Y9 )  ( <= ( + Y9 18 ) Y7 )  )
( or ( <= ( + X7 36 ) X10 )  ( <= ( + X10 10 ) X7 )  ( <= ( + Y7 73 ) Y10 )  ( <= ( + Y10 72 ) Y7 )  )
( or ( <= ( + X7 36 ) X11 )  ( <= ( + X11 93 ) X7 )  ( <= ( + Y7 73 ) Y11 )  ( <= ( + Y11 78 ) Y7 )  )
( or ( <= ( + X7 36 ) X12 )  ( <= ( + X12 37 ) X7 )  ( <= ( + Y7 73 ) Y12 )  ( <= ( + Y12 45 ) Y7 )  )
( or ( <= ( + X7 36 ) X13 )  ( <= ( + X13 13 ) X7 )  ( <= ( + Y7 73 ) Y13 )  ( <= ( + Y13 13 ) Y7 )  )
( or ( <= ( + X7 36 ) X14 )  ( <= ( + X14 87 ) X7 )  ( <= ( + Y7 73 ) Y14 )  ( <= ( + Y14 58 ) Y7 )  )
( or ( <= ( + X7 36 ) X15 )  ( <= ( + X15 42 ) X7 )  ( <= ( + Y7 73 ) Y15 )  ( <= ( + Y15 30 ) Y7 )  )
( or ( <= ( + X7 36 ) X16 )  ( <= ( + X16 67 ) X7 )  ( <= ( + Y7 73 ) Y16 )  ( <= ( + Y16 51 ) Y7 )  )
( or ( <= ( + X7 36 ) X17 )  ( <= ( + X17 54 ) X7 )  ( <= ( + Y7 73 ) Y17 )  ( <= ( + Y17 52 ) Y7 )  )
( or ( <= ( + X8 80 ) X9 )  ( <= ( + X9 15 ) X8 )  ( <= ( + Y8 9 ) Y9 )  ( <= ( + Y9 18 ) Y8 )  )
( or ( <= ( + X8 80 ) X10 )  ( <= ( + X10 10 ) X8 )  ( <= ( + Y8 9 ) Y10 )  ( <= ( + Y10 72 ) Y8 )  )
( or ( <= ( + X8 80 ) X11 )  ( <= ( + X11 93 ) X8 )  ( <= ( + Y8 9 ) Y11 )  ( <= ( + Y11 78 ) Y8 )  )
( or ( <= ( + X8 80 ) X12 )  ( <= ( + X12 37 ) X8 )  ( <= ( + Y8 9 ) Y12 )  ( <= ( + Y12 45 ) Y8 )  )
( or ( <= ( + X8 80 ) X13 )  ( <= ( + X13 13 ) X8 )  ( <= ( + Y8 9 ) Y13 )  ( <= ( + Y13 13 ) Y8 )  )
( or ( <= ( + X8 80 ) X14 )  ( <= ( + X14 87 ) X8 )  ( <= ( + Y8 9 ) Y14 )  ( <= ( + Y14 58 ) Y8 )  )
( or ( <= ( + X8 80 ) X15 )  ( <= ( + X15 42 ) X8 )  ( <= ( + Y8 9 ) Y15 )  ( <= ( + Y15 30 ) Y8 )  )
( or ( <= ( + X8 80 ) X16 )  ( <= ( + X16 67 ) X8 )  ( <= ( + Y8 9 ) Y16 )  ( <= ( + Y16 51 ) Y8 )  )
( or ( <= ( + X8 80 ) X17 )  ( <= ( + X17 54 ) X8 )  ( <= ( + Y8 9 ) Y17 )  ( <= ( + Y17 52 ) Y8 )  )
( or ( <= ( + X9 15 ) X10 )  ( <= ( + X10 10 ) X9 )  ( <= ( + Y9 18 ) Y10 )  ( <= ( + Y10 72 ) Y9 )  )
( or ( <= ( + X9 15 ) X11 )  ( <= ( + X11 93 ) X9 )  ( <= ( + Y9 18 ) Y11 )  ( <= ( + Y11 78 ) Y9 )  )
( or ( <= ( + X9 15 ) X12 )  ( <= ( + X12 37 ) X9 )  ( <= ( + Y9 18 ) Y12 )  ( <= ( + Y12 45 ) Y9 )  )
( or ( <= ( + X9 15 ) X13 )  ( <= ( + X13 13 ) X9 )  ( <= ( + Y9 18 ) Y13 )  ( <= ( + Y13 13 ) Y9 )  )
( or ( <= ( + X9 15 ) X14 )  ( <= ( + X14 87 ) X9 )  ( <= ( + Y9 18 ) Y14 )  ( <= ( + Y14 58 ) Y9 )  )
( or ( <= ( + X9 15 ) X15 )  ( <= ( + X15 42 ) X9 )  ( <= ( + Y9 18 ) Y15 )  ( <= ( + Y15 30 ) Y9 )  )
( or ( <= ( + X9 15 ) X16 )  ( <= ( + X16 67 ) X9 )  ( <= ( + Y9 18 ) Y16 )  ( <= ( + Y16 51 ) Y9 )  )
( or ( <= ( + X9 15 ) X17 )  ( <= ( + X17 54 ) X9 )  ( <= ( + Y9 18 ) Y17 )  ( <= ( + Y17 52 ) Y9 )  )
( or ( <= ( + X10 10 ) X11 )  ( <= ( + X11 93 ) X10 )  ( <= ( + Y10 72 ) Y11 )  ( <= ( + Y11 78 ) Y10 )  )
( or ( <= ( + X10 10 ) X12 )  ( <= ( + X12 37 ) X10 )  ( <= ( + Y10 72 ) Y12 )  ( <= ( + Y12 45 ) Y10 )  )
( or ( <= ( + X10 10 ) X13 )  ( <= ( + X13 13 ) X10 )  ( <= ( + Y10 72 ) Y13 )  ( <= ( + Y13 13 ) Y10 )  )
( or ( <= ( + X10 10 ) X14 )  ( <= ( + X14 87 ) X10 )  ( <= ( + Y10 72 ) Y14 )  ( <= ( + Y14 58 ) Y10 )  )
( or ( <= ( + X10 10 ) X15 )  ( <= ( + X15 42 ) X10 )  ( <= ( + Y10 72 ) Y15 )  ( <= ( + Y15 30 ) Y10 )  )
( or ( <= ( + X10 10 ) X16 )  ( <= ( + X16 67 ) X10 )  ( <= ( + Y10 72 ) Y16 )  ( <= ( + Y16 51 ) Y10 )  )
( or ( <= ( + X10 10 ) X17 )  ( <= ( + X17 54 ) X10 )  ( <= ( + Y10 72 ) Y17 )  ( <= ( + Y17 52 ) Y10 )  )
( or ( <= ( + X11 93 ) X12 )  ( <= ( + X12 37 ) X11 )  ( <= ( + Y11 78 ) Y12 )  ( <= ( + Y12 45 ) Y11 )  )
( or ( <= ( + X11 93 ) X13 )  ( <= ( + X13 13 ) X11 )  ( <= ( + Y11 78 ) Y13 )  ( <= ( + Y13 13 ) Y11 )  )
( or ( <= ( + X11 93 ) X14 )  ( <= ( + X14 87 ) X11 )  ( <= ( + Y11 78 ) Y14 )  ( <= ( + Y14 58 ) Y11 )  )
( or ( <= ( + X11 93 ) X15 )  ( <= ( + X15 42 ) X11 )  ( <= ( + Y11 78 ) Y15 )  ( <= ( + Y15 30 ) Y11 )  )
( or ( <= ( + X11 93 ) X16 )  ( <= ( + X16 67 ) X11 )  ( <= ( + Y11 78 ) Y16 )  ( <= ( + Y16 51 ) Y11 )  )
( or ( <= ( + X11 93 ) X17 )  ( <= ( + X17 54 ) X11 )  ( <= ( + Y11 78 ) Y17 )  ( <= ( + Y17 52 ) Y11 )  )
( or ( <= ( + X12 37 ) X13 )  ( <= ( + X13 13 ) X12 )  ( <= ( + Y12 45 ) Y13 )  ( <= ( + Y13 13 ) Y12 )  )
( or ( <= ( + X12 37 ) X14 )  ( <= ( + X14 87 ) X12 )  ( <= ( + Y12 45 ) Y14 )  ( <= ( + Y14 58 ) Y12 )  )
( or ( <= ( + X12 37 ) X15 )  ( <= ( + X15 42 ) X12 )  ( <= ( + Y12 45 ) Y15 )  ( <= ( + Y15 30 ) Y12 )  )
( or ( <= ( + X12 37 ) X16 )  ( <= ( + X16 67 ) X12 )  ( <= ( + Y12 45 ) Y16 )  ( <= ( + Y16 51 ) Y12 )  )
( or ( <= ( + X12 37 ) X17 )  ( <= ( + X17 54 ) X12 )  ( <= ( + Y12 45 ) Y17 )  ( <= ( + Y17 52 ) Y12 )  )
( or ( <= ( + X13 13 ) X14 )  ( <= ( + X14 87 ) X13 )  ( <= ( + Y13 13 ) Y14 )  ( <= ( + Y14 58 ) Y13 )  )
( or ( <= ( + X13 13 ) X15 )  ( <= ( + X15 42 ) X13 )  ( <= ( + Y13 13 ) Y15 )  ( <= ( + Y15 30 ) Y13 )  )
( or ( <= ( + X13 13 ) X16 )  ( <= ( + X16 67 ) X13 )  ( <= ( + Y13 13 ) Y16 )  ( <= ( + Y16 51 ) Y13 )  )
( or ( <= ( + X13 13 ) X17 )  ( <= ( + X17 54 ) X13 )  ( <= ( + Y13 13 ) Y17 )  ( <= ( + Y17 52 ) Y13 )  )
( or ( <= ( + X14 87 ) X15 )  ( <= ( + X15 42 ) X14 )  ( <= ( + Y14 58 ) Y15 )  ( <= ( + Y15 30 ) Y14 )  )
( or ( <= ( + X14 87 ) X16 )  ( <= ( + X16 67 ) X14 )  ( <= ( + Y14 58 ) Y16 )  ( <= ( + Y16 51 ) Y14 )  )
( or ( <= ( + X14 87 ) X17 )  ( <= ( + X17 54 ) X14 )  ( <= ( + Y14 58 ) Y17 )  ( <= ( + Y17 52 ) Y14 )  )
( or ( <= ( + X15 42 ) X16 )  ( <= ( + X16 67 ) X15 )  ( <= ( + Y15 30 ) Y16 )  ( <= ( + Y16 51 ) Y15 )  )
( or ( <= ( + X15 42 ) X17 )  ( <= ( + X17 54 ) X15 )  ( <= ( + Y15 30 ) Y17 )  ( <= ( + Y17 52 ) Y15 )  )
( or ( <= ( + X16 67 ) X17 )  ( <= ( + X17 54 ) X16 )  ( <= ( + Y16 51 ) Y17 )  ( <= ( + Y17 52 ) Y16 )  )
( >= X0 0)
( <= ( + X0 89) Z)
( >= Y0 0)
( <= ( + Y0 16 ) 100)
( >= X1 0)
( <= ( + X1 28) Z)
( >= Y1 0)
( <= ( + Y1 68 ) 100)
( >= X2 0)
( <= ( + X2 86) Z)
( >= Y2 0)
( <= ( + Y2 87 ) 100)
( >= X3 0)
( <= ( + X3 39) Z)
( >= Y3 0)
( <= ( + Y3 91 ) 100)
( >= X4 0)
( <= ( + X4 95) Z)
( >= Y4 0)
( <= ( + Y4 77 ) 100)
( >= X5 0)
( <= ( + X5 88) Z)
( >= Y5 0)
( <= ( + Y5 55 ) 100)
( >= X6 0)
( <= ( + X6 18) Z)
( >= Y6 0)
( <= ( + Y6 13 ) 100)
( >= X7 0)
( <= ( + X7 36) Z)
( >= Y7 0)
( <= ( + Y7 73 ) 100)
( >= X8 0)
( <= ( + X8 80) Z)
( >= Y8 0)
( <= ( + Y8 9 ) 100)
( >= X9 0)
( <= ( + X9 15) Z)
( >= Y9 0)
( <= ( + Y9 18 ) 100)
( >= X10 0)
( <= ( + X10 10) Z)
( >= Y10 0)
( <= ( + Y10 72 ) 100)
( >= X11 0)
( <= ( + X11 93) Z)
( >= Y11 0)
( <= ( + Y11 78 ) 100)
( >= X12 0)
( <= ( + X12 37) Z)
( >= Y12 0)
( <= ( + Y12 45 ) 100)
( >= X13 0)
( <= ( + X13 13) Z)
( >= Y13 0)
( <= ( + Y13 13 ) 100)
( >= X14 0)
( <= ( + X14 87) Z)
( >= Y14 0)
( <= ( + Y14 58 ) 100)
( >= X15 0)
( <= ( + X15 42) Z)
( >= Y15 0)
( <= ( + Y15 30 ) 100)
( >= X16 0)
( <= ( + X16 67) Z)
( >= Y16 0)
( <= ( + Y16 51 ) 100)
( >= X17 0)
( <= ( + X17 54) Z)
( >= Y17 0)
( <= ( + Y17 52 ) 100)
) )
(minimize Z)
(check-sat)
